NAME          
ROWS
 N  OBJ
 L  c1
 L  c2
 L  c3
COLUMNS
    MARKER    'MARKER'                 'INTORG'
    x[1]      c1        719
    x[1]      c2        550
    x[1]      c3        734
    x[1]      OBJ       -551
    x[2]      c1        625
    x[2]      c2        117
    x[2]      c3        924
    x[2]      OBJ       -783
    x[3]      c1        257
    x[3]      c2        899
    x[3]      c3        832
    x[3]      OBJ       -508
    x[4]      c1        826
    x[4]      c2        854
    x[4]      c3        702
    x[4]      OBJ       -247
    x[5]      c1        529
    x[5]      c2        101
    x[5]      c3        919
    x[5]      OBJ       -172
    x[6]      c1        666
    x[6]      c2        141
    x[6]      c3        771
    x[6]      OBJ       -512
    x[7]      c1        499
    x[7]      c2        373
    x[7]      c3        729
    x[7]      OBJ       -180
    x[8]      c1        226
    x[8]      c2        501
    x[8]      c3        57
    x[8]      OBJ       -311
    x[9]      c1        385
    x[9]      c2        636
    x[9]      c3        518
    x[9]      OBJ       -769
    x[10]     c1        605
    x[10]     c2        945
    x[10]     c3        860
    x[10]     OBJ       -444
    x[11]     c1        688
    x[11]     c2        722
    x[11]     c3        98
    x[11]     OBJ       -528
    x[12]     c1        793
    x[12]     c2        477
    x[12]     c3        167
    x[12]     OBJ       -326
    x[13]     c1        534
    x[13]     c2        131
    x[13]     c3        289
    x[13]     OBJ       -702
    x[14]     c1        411
    x[14]     c2        467
    x[14]     c3        437
    x[14]     OBJ       -670
    x[15]     c1        379
    x[15]     c2        814
    x[15]     c3        517
    x[15]     OBJ       -338
    x[16]     c1        144
    x[16]     c2        579
    x[16]     c3        634
    x[16]     OBJ       -859
    x[17]     c1        221
    x[17]     c2        331
    x[17]     c3        520
    x[17]     OBJ       -446
    x[18]     c1        948
    x[18]     c2        140
    x[18]     c3        89
    x[18]     OBJ       -936
    x[19]     c1        308
    x[19]     c2        205
    x[19]     c3        887
    x[19]     OBJ       -534
    x[20]     c1        180
    x[20]     c2        26
    x[20]     c3        495
    x[20]     OBJ       -245
    x[21]     c1        847
    x[21]     c2        901
    x[21]     c3        368
    x[21]     OBJ       -94
    x[22]     c1        849
    x[22]     c2        527
    x[22]     c3        374
    x[22]     OBJ       -6
    x[23]     c1        982
    x[23]     c2        328
    x[23]     c3        997
    x[23]     OBJ       -362
    x[24]     c1        750
    x[24]     c2        699
    x[24]     c3        847
    x[24]     OBJ       -728
    x[25]     c1        693
    x[25]     c2        787
    x[25]     c3        193
    x[25]     OBJ       -755
RHS
    rhs       c1        7032
    rhs       c2        6126
    rhs       c3        6979
RANGES
BOUNDS
 LO bounds    x[1]      0
 PL bounds    x[1]
 LO bounds    x[2]      0
 PL bounds    x[2]
 LO bounds    x[3]      0
 PL bounds    x[3]
 LO bounds    x[4]      0
 PL bounds    x[4]
 LO bounds    x[5]      0
 PL bounds    x[5]
 LO bounds    x[6]      0
 PL bounds    x[6]
 LO bounds    x[7]      0
 PL bounds    x[7]
 LO bounds    x[8]      0
 PL bounds    x[8]
 LO bounds    x[9]      0
 PL bounds    x[9]
 LO bounds    x[10]     0
 PL bounds    x[10]
 LO bounds    x[11]     0
 PL bounds    x[11]
 LO bounds    x[12]     0
 PL bounds    x[12]
 LO bounds    x[13]     0
 PL bounds    x[13]
 LO bounds    x[14]     0
 PL bounds    x[14]
 LO bounds    x[15]     0
 PL bounds    x[15]
 LO bounds    x[16]     0
 PL bounds    x[16]
 LO bounds    x[17]     0
 PL bounds    x[17]
 LO bounds    x[18]     0
 PL bounds    x[18]
 LO bounds    x[19]     0
 PL bounds    x[19]
 LO bounds    x[20]     0
 PL bounds    x[20]
 LO bounds    x[21]     0
 PL bounds    x[21]
 LO bounds    x[22]     0
 PL bounds    x[22]
 LO bounds    x[23]     0
 PL bounds    x[23]
 LO bounds    x[24]     0
 PL bounds    x[24]
 LO bounds    x[25]     0
 PL bounds    x[25]
ENDATA
